p cnf 12 21
12 -11 9 0
-12 -11 7 0
-12 10 -9 0
12 9 -4 0
-12 -8 3 0
12 7 -4 0
-12 6 -5 0
12 -6 -2 0
-12 -6 1 0
-11 8 5 0
-11 -5 1 0
11 -2 1 0
10 9 3 0
10 -6 -3 0
-9 5 1 0
8 -6 5 0
8 -5 3 0
-8 5 -2 0
-7 -4 -2 0
-6 -4 2 0
4 -2 1 0
